p edge 30 41 20
v 2 5 21
v 3 2 15 29
v 1 12
v 1 16
v 1 25
v 1 17
v 3 7 13 18
v 2 11 30
v 1 27
v 2 10 22
v 1 4
v 2 6 23
v 1 20
v 1 3
v 1 1
v 2 8 24
v 2 26 28
v 1 19
v 1 14
v 1 9
e 1 9
e 1 12
e 1 20
e 1 29
e 2 5
e 2 18
e 3 30
e 4 19
e 4 20
e 4 28
e 5 14
e 5 19
e 5 22
e 6 25
e 7 14
e 7 24
e 8 19
e 8 23
e 8 26
e 9 24
e 10 17
e 10 23
e 10 28
e 11 23
e 11 26
e 12 17
e 12 27
e 13 21
e 13 29
e 13 30
e 15 26
e 16 28
e 18 19
e 18 27
e 20 22
e 21 22
e 21 24
e 21 30
e 22 28
e 23 30
e 25 30
